
Gurobi 12.0.2 (win64) logging started Thu Nov 13 14:44:36 2025

Set parameter LogFile to value "resultados DATA_1_n30m05b2d1\instancia_1_log.txt"
Set parameter TimeLimit to value 3600
Gurobi Optimizer version 12.0.2 build v12.0.2rc0 (win64 - Windows 10.0 (19045.2))

CPU model: Intel(R) Core(TM) i5-6300U CPU @ 2.40GHz, instruction set [SSE2|AVX|AVX2]
Thread count: 2 physical cores, 4 logical processors, using up to 4 threads

Non-default parameters:
TimeLimit  3600

Optimize a model with 14955 rows, 47629 columns and 9579132 nonzeros
Model fingerprint: 0xe3158021
Variable types: 0 continuous, 47629 integer (47629 binary)
Coefficient statistics:
  Matrix range     [1e+00, 1e+00]
  Objective range  [4e-03, 2e-02]
  Bounds range     [1e+00, 1e+00]
  RHS range        [1e+00, 1e+02]
Found heuristic solution: objective 0.9226296
Presolve removed 0 rows and 0 columns (presolve time = 5s)...
Presolve removed 0 rows and 5581 columns (presolve time = 10s)...
Presolve removed 0 rows and 14319 columns (presolve time = 15s)...
Presolve removed 0 rows and 14319 columns (presolve time = 20s)...
Presolve removed 0 rows and 14319 columns (presolve time = 25s)...
Presolve removed 666 rows and 14409 columns (presolve time = 30s)...
Presolve removed 666 rows and 14471 columns (presolve time = 35s)...
Presolve removed 740 rows and 14471 columns (presolve time = 40s)...
Presolve removed 740 rows and 14471 columns (presolve time = 45s)...
Presolve removed 740 rows and 14471 columns (presolve time = 50s)...
Presolve removed 740 rows and 14471 columns (presolve time = 55s)...
Presolve removed 740 rows and 14471 columns (presolve time = 60s)...
Presolve removed 740 rows and 14471 columns (presolve time = 65s)...
Presolve removed 740 rows and 14471 columns (presolve time = 70s)...
Presolve removed 740 rows and 14471 columns (presolve time = 75s)...
Presolve removed 740 rows and 14471 columns (presolve time = 80s)...
Presolve removed 740 rows and 14471 columns (presolve time = 85s)...
Presolve removed 740 rows and 14471 columns (presolve time = 90s)...
Presolve removed 740 rows and 14471 columns (presolve time = 95s)...
Presolve removed 740 rows and 14471 columns (presolve time = 100s)...
Presolve removed 740 rows and 14471 columns (presolve time = 105s)...
Presolve removed 740 rows and 14471 columns (presolve time = 110s)...
Presolve removed 740 rows and 14471 columns (presolve time = 115s)...
Presolve removed 740 rows and 14471 columns (presolve time = 120s)...
Presolve removed 740 rows and 14471 columns (presolve time = 125s)...
Presolve removed 740 rows and 14471 columns (presolve time = 130s)...
Presolve removed 740 rows and 14471 columns (presolve time = 135s)...
Presolve removed 740 rows and 14471 columns (presolve time = 140s)...
Presolve removed 740 rows and 14471 columns (presolve time = 145s)...
Presolve removed 740 rows and 14471 columns (presolve time = 150s)...
Presolve removed 740 rows and 14471 columns (presolve time = 155s)...
Presolve removed 740 rows and 14471 columns (presolve time = 160s)...
Presolve removed 740 rows and 14471 columns (presolve time = 165s)...
Presolve removed 740 rows and 14471 columns (presolve time = 170s)...
Presolve removed 740 rows and 14471 columns
Presolve time: 174.93s
Presolved: 14215 rows, 33158 columns, 6562120 nonzeros
Found heuristic solution: objective 0.8166667
Variable types: 0 continuous, 33158 integer (33158 binary)
Deterministic concurrent LP optimizer: dual simplex and barrier
Showing barrier log only...

Root barrier log...

Elapsed ordering time = 5s
Ordering time: 5.90s

Barrier statistics:
 AA' NZ     : 1.939e+07
 Factor NZ  : 8.998e+07 (roughly 700 MB of memory)
 Factor Ops : 7.557e+11 (roughly 70 seconds per iteration)
 Threads    : 1

                  Objective                Residual
Iter       Primal          Dual         Primal    Dual     Compl     Time
   0   3.75079693e+03 -0.00000000e+00  1.19e+05 2.36e-02  4.22e-01   230s
   1   4.26561367e+02  2.49547605e+01  1.39e+04 4.58e-03  4.86e-02   304s
   2   4.59004746e+01  1.72120499e+01  1.75e+03 1.53e-04  5.68e-03   403s
   3   2.64214674e+00  1.30576629e+01  7.69e+01 2.78e-16  3.85e-04   475s
   4   1.01755228e+00  7.33360811e+00  1.14e+01 2.78e-16  1.14e-04   538s
   5   8.05080514e-01  2.27284684e+00  2.54e-02 2.22e-16  1.89e-05   599s
   6   8.57573295e-01  1.62461609e+00  1.02e-02 1.28e-16  9.69e-06   657s
   7   9.07588434e-01  1.26664291e+00  7.44e-03 7.98e-17  4.53e-06   715s
   8   9.69802463e-01  1.04883158e+00  9.62e-04 4.42e-17  9.87e-07   773s
   9   9.86061320e-01  1.01448359e+00  0.00e+00 2.65e-17  3.54e-07   828s
  10   9.96164082e-01  1.00322077e+00  0.00e+00 3.69e-17  8.78e-08   889s
  11   9.98926179e-01  1.00041241e+00  0.00e+00 3.12e-17  1.85e-08   949s
  12   9.99569944e-01  9.99927163e-01  0.00e+00 4.84e-17  4.44e-09  1023s
  13   9.99721742e-01  9.99806266e-01  0.00e+00 3.79e-17  1.05e-09  1103s
  14   9.99766444e-01  9.99778630e-01  0.00e+00 3.95e-17  1.51e-10  1148s
  15   9.99770448e-01  9.99775470e-01  0.00e+00 3.84e-17  6.24e-11  1188s
  16   9.99773007e-01  9.99773513e-01  0.00e+00 3.22e-17  6.28e-12  1233s
  17   9.99773166e-01  9.99773260e-01  0.00e+00 4.26e-15  1.17e-12  1271s
  18   9.99773218e-01  9.99773221e-01  1.29e-10 1.60e-14  4.08e-14  1311s

Barrier solved model in 18 iterations and 1311.26 seconds (512.06 work units)
Optimal objective 9.99773218e-01


Root crossover log...

    6237 variables added to crossover basis                     1315s
    6778 variables added to crossover basis                     1320s
    7138 variables added to crossover basis                     1325s
    7498 variables added to crossover basis                     1331s
    7648 variables added to crossover basis                     1335s
    7828 variables added to crossover basis                     1340s
    8039 variables added to crossover basis                     1346s
    8189 variables added to crossover basis                     1351s
    8279 variables added to crossover basis                     1355s
    8399 variables added to crossover basis                     1361s
    8459 variables added to crossover basis                     1365s
    8519 variables added to crossover basis                     1370s
    8609 variables added to crossover basis                     1378s
    8639 variables added to crossover basis                     1384s
    8669 variables added to crossover basis                     1386s
    8729 variables added to crossover basis                     1393s
    8759 variables added to crossover basis                     1399s
    8789 variables added to crossover basis                     1401s
    8819 variables added to crossover basis                     1405s
    8879 variables added to crossover basis                     1414s
    8909 variables added to crossover basis                     1419s
    8939 variables added to crossover basis                     1424s
    8969 variables added to crossover basis                     1427s
    8999 variables added to crossover basis                     1433s
    9029 variables added to crossover basis                     1438s
    9059 variables added to crossover basis                     1445s
    9119 variables added to crossover basis                     1459s
    9149 variables added to crossover basis                     1466s
    9179 variables added to crossover basis                     1474s
    9209 variables added to crossover basis                     1480s
    9239 variables added to crossover basis                     1487s
    9269 variables added to crossover basis                     1494s
    9299 variables added to crossover basis                     1500s
    9329 variables added to crossover basis                     1509s
    9359 variables added to crossover basis                     1515s
    9389 variables added to crossover basis                     1521s

Restart crossover...

    2666 variables added to crossover basis                     1929s
    5008 variables added to crossover basis                     1930s
    6208 variables added to crossover basis                     1935s
    6628 variables added to crossover basis                     1940s
    6868 variables added to crossover basis                     1945s
    6988 variables added to crossover basis                     1950s
    7078 variables added to crossover basis                     1955s
    7138 variables added to crossover basis                     1961s
    7198 variables added to crossover basis                     1965s
    7258 variables added to crossover basis                     1973s
    7288 variables added to crossover basis                     1977s
    7318 variables added to crossover basis                     1984s
    7348 variables added to crossover basis                     1988s
    7378 variables added to crossover basis                     1994s
    7393 variables added to crossover basis                     2000s
    7403 variables added to crossover basis                     2004s
    7413 variables added to crossover basis                     2008s
    7423 variables added to crossover basis                     2012s
    7433 variables added to crossover basis                     2017s
    7443 variables added to crossover basis                     2021s
    7453 variables added to crossover basis                     2025s
    7473 variables added to crossover basis                     2033s
    7483 variables added to crossover basis                     2038s
    7493 variables added to crossover basis                     2042s
    7502 variables added to crossover basis                     2046s
    7522 variables added to crossover basis                     2054s
    7532 variables added to crossover basis                     2058s
    7542 variables added to crossover basis                     2063s
    7551 variables added to crossover basis                     2066s
    7561 variables added to crossover basis                     2071s
    7581 variables added to crossover basis                     2079s
    7591 variables added to crossover basis                     2083s
    7601 variables added to crossover basis                     2087s
    7611 variables added to crossover basis                     2091s
    7621 variables added to crossover basis                     2096s
    7641 variables added to crossover basis                     2103s
    7651 variables added to crossover basis                     2107s
    7661 variables added to crossover basis                     2112s
    7670 variables added to crossover basis                     2115s
    7689 variables added to crossover basis                     2123s
    7699 variables added to crossover basis                     2127s
    7708 variables added to crossover basis                     2130s
    7728 variables added to crossover basis                     2138s
    7738 variables added to crossover basis                     2142s
    7748 variables added to crossover basis                     2146s
    7758 variables added to crossover basis                     2150s
    7778 variables added to crossover basis                     2158s
    7788 variables added to crossover basis                     2162s
    7798 variables added to crossover basis                     2166s
    7808 variables added to crossover basis                     2170s
    7828 variables added to crossover basis                     2178s
    7838 variables added to crossover basis                     2182s
    7848 variables added to crossover basis                     2186s
    7868 variables added to crossover basis                     2193s
    7878 variables added to crossover basis                     2197s
    7888 variables added to crossover basis                     2201s
    7908 variables added to crossover basis                     2207s
    7918 variables added to crossover basis                     2211s
    7938 variables added to crossover basis                     2219s
    7948 variables added to crossover basis                     2223s
    7958 variables added to crossover basis                     2226s
    7968 variables added to crossover basis                     2230s
    7987 variables added to crossover basis                     2237s
    7997 variables added to crossover basis                     2241s
    8017 variables added to crossover basis                     2248s
    8027 variables added to crossover basis                     2252s
    8037 variables added to crossover basis                     2256s
    8057 variables added to crossover basis                     2263s
    8066 variables added to crossover basis                     2266s
    8086 variables added to crossover basis                     2273s
    8096 variables added to crossover basis                     2277s
    8106 variables added to crossover basis                     2280s
    8126 variables added to crossover basis                     2288s
    8136 variables added to crossover basis                     2291s
    8156 variables added to crossover basis                     2298s
    8166 variables added to crossover basis                     2302s
    8176 variables added to crossover basis                     2305s
    8196 variables added to crossover basis                     2312s
    8206 variables added to crossover basis                     2316s
    8226 variables added to crossover basis                     2323s
    8236 variables added to crossover basis                     2326s
    8256 variables added to crossover basis                     2333s
    8266 variables added to crossover basis                     2336s
    8285 variables added to crossover basis                     2343s
    8295 variables added to crossover basis                     2346s
    8315 variables added to crossover basis                     2353s
    8325 variables added to crossover basis                     2356s
    8345 variables added to crossover basis                     2362s
    8355 variables added to crossover basis                     2366s
    8375 variables added to crossover basis                     2372s
    8385 variables added to crossover basis                     2375s
    8405 variables added to crossover basis                     2382s
    8424 variables added to crossover basis                     2388s
    8433 variables added to crossover basis                     2391s
    8453 variables added to crossover basis                     2398s
    8462 variables added to crossover basis                     2401s
    8482 variables added to crossover basis                     2407s
    8492 variables added to crossover basis                     2411s
    8511 variables added to crossover basis                     2417s
    8521 variables added to crossover basis                     2420s
    8541 variables added to crossover basis                     2427s
    8551 variables added to crossover basis                     2430s
    8571 variables added to crossover basis                     2437s
    8591 variables added to crossover basis                     2443s
    8601 variables added to crossover basis                     2446s
    8621 variables added to crossover basis                     2452s
    8641 variables added to crossover basis                     2458s
    8651 variables added to crossover basis                     2461s
    8670 variables added to crossover basis                     2466s
    8690 variables added to crossover basis                     2472s
    8710 variables added to crossover basis                     2477s
    8720 variables added to crossover basis                     2480s
    8740 variables added to crossover basis                     2486s
    8760 variables added to crossover basis                     2491s
    8780 variables added to crossover basis                     2497s
    8800 variables added to crossover basis                     2502s
    8819 variables added to crossover basis                     2507s
    8839 variables added to crossover basis                     2513s
    8849 variables added to crossover basis                     2515s
    8869 variables added to crossover basis                     2520s
    8888 variables added to crossover basis                     2525s
    8908 variables added to crossover basis                     2531s
    8927 variables added to crossover basis                     2536s
    8947 variables added to crossover basis                     2542s
    8965 variables added to crossover basis                     2546s
    8985 variables added to crossover basis                     2552s
    9005 variables added to crossover basis                     2557s
    9025 variables added to crossover basis                     2562s
    9045 variables added to crossover basis                     2567s
    9065 variables added to crossover basis                     2572s
    9075 variables added to crossover basis                     2575s
    9104 variables added to crossover basis                     2582s
    9123 variables added to crossover basis                     2587s
    9143 variables added to crossover basis                     2592s
    9163 variables added to crossover basis                     2597s
    9182 variables added to crossover basis                     2602s
    9201 variables added to crossover basis                     2606s
    9221 variables added to crossover basis                     2611s
    9240 variables added to crossover basis                     2615s
    9260 variables added to crossover basis                     2620s
    9290 variables added to crossover basis                     2627s
    9309 variables added to crossover basis                     2631s
    9329 variables added to crossover basis                     2636s
    9349 variables added to crossover basis                     2641s
    9368 variables added to crossover basis                     2645s
    9398 variables added to crossover basis                     2652s
    9418 variables added to crossover basis                     2657s
    9438 variables added to crossover basis                     2661s
    9457 variables added to crossover basis                     2665s
    9487 variables added to crossover basis                     2672s
    9507 variables added to crossover basis                     2676s
    9527 variables added to crossover basis                     2680s
    9555 variables added to crossover basis                     2686s
    9575 variables added to crossover basis                     2690s
    9605 variables added to crossover basis                     2696s
    9625 variables added to crossover basis                     2700s
    9655 variables added to crossover basis                     2706s
    9675 variables added to crossover basis                     2711s
    9705 variables added to crossover basis                     2717s
    9725 variables added to crossover basis                     2721s
    9755 variables added to crossover basis                     2726s
    9774 variables added to crossover basis                     2730s
    9803 variables added to crossover basis                     2736s
    9833 variables added to crossover basis                     2741s
    9863 variables added to crossover basis                     2747s
    9883 variables added to crossover basis                     2750s
    9912 variables added to crossover basis                     2756s
    9942 variables added to crossover basis                     2761s
    9971 variables added to crossover basis                     2766s
   10001 variables added to crossover basis                     2771s
   10031 variables added to crossover basis                     2776s
   10061 variables added to crossover basis                     2781s
   10090 variables added to crossover basis                     2786s
   10119 variables added to crossover basis                     2791s
   10149 variables added to crossover basis                     2796s
   10179 variables added to crossover basis                     2801s
   10217 variables added to crossover basis                     2806s
   10246 variables added to crossover basis                     2811s
   10276 variables added to crossover basis                     2815s
   10314 variables added to crossover basis                     2821s
   10343 variables added to crossover basis                     2825s
   10383 variables added to crossover basis                     2831s
   10420 variables added to crossover basis                     2836s
   10450 variables added to crossover basis                     2840s
   10489 variables added to crossover basis                     2846s
   10528 variables added to crossover basis                     2851s
   10567 variables added to crossover basis                     2856s
   10596 variables added to crossover basis                     2860s
   10644 variables added to crossover basis                     2866s
   10683 variables added to crossover basis                     2871s
   10718 variables added to crossover basis                     2875s
   10767 variables added to crossover basis                     2881s
   10806 variables added to crossover basis                     2886s
   10846 variables added to crossover basis                     2890s
   10892 variables added to crossover basis                     2895s
   10942 variables added to crossover basis                     2901s
   10991 variables added to crossover basis                     2906s
   11030 variables added to crossover basis                     2910s
   11089 variables added to crossover basis                     2916s
   11139 variables added to crossover basis                     2921s
   11188 variables added to crossover basis                     2925s
   11253 variables added to crossover basis                     2931s
   11303 variables added to crossover basis                     2936s
   11363 variables added to crossover basis                     2941s
   11422 variables added to crossover basis                     2945s
   11489 variables added to crossover basis                     2950s
   11564 variables added to crossover basis                     2956s
   11622 variables added to crossover basis                     2960s
   11699 variables added to crossover basis                     2966s
   11771 variables added to crossover basis                     2970s
   11864 variables added to crossover basis                     2976s
   11938 variables added to crossover basis                     2980s
   12026 variables added to crossover basis                     2985s
   12147 variables added to crossover basis                     2990s
   12299 variables added to crossover basis                     2995s
   12440 variables added to crossover basis                     3000s
   12531 variables added to crossover basis                     3005s
   12619 variables added to crossover basis                     3010s
   12715 variables added to crossover basis                     3015s
   12841 variables added to crossover basis                     3020s
   13001 variables added to crossover basis                     3025s

     940 DPushes remaining with DInf 1.4779200e+00              3052s
     938 DPushes remaining with DInf 1.4781186e+00              3073s
     762 DPushes remaining with DInf 1.5434694e+00              3117s


Root relaxation: time limit, 0 iterations, 12327.87 seconds (627.53 work units)

    Nodes    |    Current Node    |     Objective Bounds      |     Work
 Expl Unexpl |  Obj  Depth IntInf | Incumbent    BestBd   Gap | It/Node Time

     0     0          -    0         0.92263  288.56767      -     - 12506s

Explored 1 nodes (0 simplex iterations) in 12507.35 seconds (672.58 work units)
Thread count was 4 (of 4 available processors)

Solution count 2: 0.92263 0.816667 

Time limit reached
Best objective 9.226296296296e-01, best bound 2.885676666669e+02, gap 31176.6529%
